p cnf 27 24
-1 24 -2 7 -3 16 -4 26 0 
-5 22 -6 13 -7 2 -4 -8 26 0 
-9 -10 -7 2 -8 27 0 
-11 -12 -4 -13 6 -9 27 0 
-1 24 -14 27 0 
-15 -4 -14 27 0 
-6 13 -5 22 26 0 
-16 3 -11 -12 -8 -4 26 0 
-5 22 -9 -17 -18 26 0 
-11 -12 -16 3 -8 26 0 
-16 3 -7 2 -19 -4 27 0 
-7 2 -20 27 0 
-21 -18 26 0 
-9 -1 24 -22 5 -14 26 0 
-9 -23 -7 2 -5 22 -1 24 27 0 
-13 6 -1 24 -7 2 -9 -20 27 0 
-24 1 -17 -6 13 -20 26 0 
-7 2 -9 -14 27 0 
-3 16 -17 -24 1 -5 22 26 0 
-3 16 -9 -14 26 0 
-1 24 -3 16 -7 2 -9 26 0 
-25 -18 26 0 
-5 22 -6 13 -4 26 0 
-22 5 -2 7 -6 13 -3 16 -17 26 0 
